# wB97XD/Gen Freq Opt=(VeryTight,CalcAll) Int=Ultrafine

Harmonic Frequencies for {molecule} with the wB97X-D/def2-SVPD model chemistry

{geometry}
{def2_basis}



